1 16
2 10
3 3
4 18
5 17
6 18
7 17
8 5
9 1
10 10
11 7
12 17
13 9
14 11
15 19
16 2
17 19
18 8
19 16
20 13
21 9
22 8
23 1
24 11
25 12
26 2
27 11
28 19
29 20
30 20
31 20
32 1
33 1
34 1
35 14
36 14
37 14
38 13
39 14
40 2
41 10
42 9
43 2
44 1
45 7
46 18
47 9
48 1
49 15
50 20
51 18
52 6
53 8
54 8
55 1
56 5
57 11
58 16
59 2
60 16
61 4
62 18
63 15
64 7
65 4
66 3
67 5
68 5
69 6
70 3
71 2
72 3
73 3
74 15
75 15
76 16
77 16
78 18
79 8
80 7
81 8
82 8
83 11
84 15
85 10
86 10
87 5
88 4
89 12
90 4
91 6
92 9
93 6
94 12
95 17
96 4
97 14
98 7
99 6
100 14
101 11
102 20
103 19
104 12
105 12
106 15
107 2
108 4
109 13
110 13
111 13
112 19
113 20
114 19
115 19
116 20
117 12
118 20
119 12
120 14
121 15
122 14
123 7
124 19
125 9
126 20
127 6
128 15
129 16
130 1
131 1
132 1
133 1
134 13
135 18
136 6
137 6
138 6
139 7
140 18
141 11
142 9
143 4
144 4
145 12
146 16
147 6
148 1
149 17
150 5
151 17
152 6
153 5
154 5
155 3
156 2
157 9
158 8
159 10
160 10
161 5
162 12
163 3
164 5
165 11
166 9
167 9
168 9
169 5
170 13
171 13
172 15
173 18
174 15
175 9
176 12
177 8
178 4
179 13
180 18
181 17
